%nprocs=4
%mem=50GB
%chk=your_molecule_cosmo.chk
#p BVP86/TZVP scf=tight density=current scrf=cosmors 

your_molecule_cosmo

0 1  
 C        -0.955079019256      0.749414235292     -0.342645648143
 C         0.153642666598     -0.301222859428     -0.225656092289
 H        -0.663338974673      1.659367428747      0.208300481070
 H        -1.046571352979      1.024200640413     -1.406239249154
 H        -7.636068213078      0.454668930294      0.196435904709
 O         0.006449724119     -0.932623344048      1.078303885756
 H        -0.016498099825     -1.068754245057     -1.003078386180
 H         1.637801802868      0.785639045392     -1.380730697871
 H         0.750010200564     -1.550065527290      1.191566381500
 C        -3.477752436205      1.121781398010     -0.330031742379
 C        -2.319180669123      0.275998513154      0.195401230214
 H        -3.254399929011      2.178420832404     -0.104881465999
 H        -3.531995974896      1.023144222622     -1.428254118090
 H        -2.298662613510      0.344807306396      1.297773755607
 O        -2.576368208587     -1.108433727959     -0.163052117163
 H        -1.945260193712     -1.629985153175      0.372108836974
 H        -8.049543995094      2.187836047000      0.211069065805
 C        -5.928693720904      1.769762682083     -0.101345909569
 C        -4.845433887385      0.754019681907      0.268990974930
 H        -5.594004883268      2.769403953000      0.223973453720
 H        -6.009757058896      1.798846479013     -1.201223073684
 H        -7.243132808915      1.451427247811      1.614038043185
 H        -4.742980732918      0.745587262927      1.377910834443
 O        -5.283647865318     -0.535515521060     -0.182295816575
 C         1.547662325827      0.291617182338     -0.401756998188
 H         1.753982075948      1.033636166252      0.383471358504
 H         2.323121951742     -0.489406728353     -0.355142507819
 C        -7.293730690948      1.448294079009      0.513830499931
 H        -4.485180619166     -1.106226747694     -0.166372443246

your_molecule_cosmo.cosmo  